Set parameter Username
Academic license - for non-commercial use only - expires 2024-10-29
Set parameter LazyConstraints to value 1
Set parameter TimeLimit to value 600
Gurobi Optimizer version 10.0.0 build v10.0.0rc2 (linux64)

CPU model: AMD FX(tm)-4300 Quad-Core Processor, instruction set [SSE2|AVX]
Thread count: 2 physical cores, 4 logical processors, using up to 4 threads

Optimize a model with 50083 rows, 12500 columns and 54084 nonzeros
Model fingerprint: 0x8b69f0c1
Variable types: 0 continuous, 12500 integer (12500 binary)
Coefficient statistics:
  Matrix range     [1e+00, 1e+00]
  Objective range  [1e+00, 1e+01]
  Bounds range     [1e+00, 1e+00]
  RHS range        [1e+00, 1e+00]
Presolve removed 50000 rows and 0 columns
Presolve time: 0.03s
Presolved: 83 rows, 12500 columns, 4084 nonzeros
Variable types: 0 continuous, 12500 integer (12500 binary)

Root simplex log...

Iteration    Objective       Primal Inf.    Dual Inf.      Time
       0    0.0000000e+00   8.527947e+01   0.000000e+00      5s
      88    6.3000000e+01   0.000000e+00   0.000000e+00      5s

Root relaxation: objective 6.300000e+01, 88 iterations, 0.00 seconds (0.00 work units)

    Nodes    |    Current Node    |     Objective Bounds      |     Work
 Expl Unexpl |  Obj  Depth IntInf | Incumbent    BestBd   Gap | It/Node Time

     0     0   63.00000    0    -          -   63.00000      -     -    6s
     0     0   63.00000    0    -          -   63.00000      -     -    7s
     0     0   63.00000    0    -          -   63.00000      -     -    7s
     0     0   63.00000    0    4          -   63.00000      -     -    7s
     0     0   86.00000    0    -          -   86.00000      -     -   20s
     0     0   86.00000    0    -          -   86.00000      -     -   21s
     0     0   86.00000    0    -          -   86.00000      -     -   22s
     0     0   86.00000    0    -          -   86.00000      -     -   23s
     0     0   86.00000    0    -          -   86.00000      -     -   24s
     0     0   86.00000    0    -          -   86.00000      -     -   25s
     0     0   86.00000    0    -          -   86.00000      -     -   26s
     0     0   86.00000    0    -          -   86.00000      -     -   26s
     0     0   86.00000    0    -          -   86.00000      -     -   27s
     0     0   86.00000    0    -          -   86.00000      -     -   28s
H    0     0                     444.0000000   86.00000  80.6%     -   29s
     0     0   86.00000    0    5  444.00000   86.00000  80.6%     -   29s
     0     0   86.00000    0    5  444.00000   86.00000  80.6%     -   39s
     0     0   90.00000    0    -  444.00000   90.00000  79.7%     -   41s
     0     0   90.00000    0    -  444.00000   90.00000  79.7%     -   42s
     0     0   90.00000    0    -  444.00000   90.00000  79.7%     -   43s
     0     0   90.00000    0    -  444.00000   90.00000  79.7%     -   44s
     0     0   90.00000    0    -  444.00000   90.00000  79.7%     -   45s
H    0     0                     430.0000000   90.00000  79.1%     -   46s
     0     0   90.00000    0    4  430.00000   90.00000  79.1%     -   46s
H    0     0                     419.0000000   90.00000  78.5%     -   47s
     0     0   90.00000    0    4  419.00000   90.00000  78.5%     -   51s
     0     0   90.00000    0    4  419.00000   90.00000  78.5%     -   56s
H    0     2                     413.0000000   90.00000  78.2%     -   64s
     0     2   90.00000    0    6  413.00000   90.00000  78.2%     -   64s
     3     4   90.00000    1    6  413.00000   90.00000  78.2%   6.7   67s
     9     2   90.00000    2    -  413.00000   90.00000  78.2%   5.3   71s
    19     0   90.00000    2    -  413.00000   90.00000  78.2%   4.3   77s
    31     0   90.00000    2    -  413.00000   90.00000  78.2%   3.3   84s
    43     8   90.00000    2    4  413.00000   90.00000  78.2%   2.7   90s
    57     0   90.00000    6    -  413.00000   90.00000  78.2%   2.6   97s
    82    10   90.00000    6    -  413.00000   90.00000  78.2%   2.3  107s
    93     0   90.00000    3    -  413.00000   90.00000  78.2%   2.4  114s
   115    11   90.00000    3    -  413.00000   90.00000  78.2%   2.4  126s
   131    10   90.00000    8    -  413.00000   90.00000  78.2%   2.4  135s
   159    17   90.00000    3    -  413.00000   90.00000  78.2%   2.5  153s
H  160    18                     410.0000000   90.00000  78.0%   2.5  154s
H  169    25                     407.0000000   90.00000  77.9%   2.6  161s
   185     6   90.00000    8    8  407.00000   90.00000  77.9%   2.6  170s
H  192    11                     402.0000000   90.00000  77.6%   2.7  176s
H  220    30                     394.0000000   90.00000  77.2%   2.8  190s
   240    44   90.00000    9    6  394.00000   90.00000  77.2%   2.9  200s
   276    61   90.00000   15    6  394.00000   90.00000  77.2%   2.9  217s
   325    41   90.00000    9    -  394.00000   90.00000  77.2%   2.9  240s
H  350    60                     390.0000000   90.00000  76.9%   3.0  253s
   419   110   90.00000   11    6  390.00000   90.00000  76.9%   3.3  289s
   431    78   90.00000   11    -  390.00000   90.00000  76.9%   3.3  294s
   457    98   90.00000    8    -  390.00000   90.00000  76.9%   3.4  309s
   483   117   90.00000    9    -  390.00000   90.00000  76.9%   3.4  321s
   539   126   90.00000   11    -  390.00000   90.00000  76.9%   3.6  339s
   563   141   90.00000   11    -  390.00000   90.00000  76.9%   3.6  355s
   587   152   90.00000   13    8  390.00000   90.00000  76.9%   3.6  363s
   611   165   90.00000   13    -  390.00000   90.00000  76.9%   3.6  374s
   635   181   90.00000   16    4  390.00000   90.00000  76.9%   3.6  385s
   731   236   90.00000    9    -  390.00000   90.00000  76.9%   3.6  414s
   752   249   90.00000   23    -  390.00000   90.00000  76.9%   3.5  425s
   773   260   90.00000   11    -  390.00000   90.00000  76.9%   3.5  432s
   849   294   90.00000   10    -  390.00000   90.00000  76.9%   3.5  462s
   870   295   90.00000   22    -  390.00000   90.00000  76.9%   3.5  477s
   890   308   90.00000   12    -  390.00000   90.00000  76.9%   3.5  486s
   910   325   90.00000   19    -  390.00000   90.00000  76.9%   3.5  498s
   930   334   90.50000   24    3  390.00000   90.00000  76.9%   3.5  507s
  1031   385   90.00000   14   10  390.00000   90.00000  76.9%   3.5  533s
  1044   338   90.50000   27    5  390.00000   90.00000  76.9%   3.5  537s
  1062   348   90.00000   14    -  390.00000   90.00000  76.9%   3.5  546s
  1080   363   90.00000   24    -  390.00000   90.00000  76.9%   3.5  558s
  1098   377   90.00000   20   15  390.00000   90.00000  76.9%   3.5  565s
  1172   354   90.00000   24    -  390.00000   90.00000  76.9%   3.6  589s
  1189   369   90.00000   12    -  390.00000   90.00000  76.9%   3.5  603s
  1206   381   90.00000   15    -  390.00000   90.00000  76.9%   3.5  611s
  1223   394   90.00000   10    -  390.00000   90.00000  76.9%   3.5  617s
  1240   404   90.00000   14   10  390.00000   90.00000  76.9%   3.5  625s
  1257   410   90.00000   22    -  390.00000   90.00000  76.9%   3.5  630s
  1274   421   90.00000   14    -  390.00000   90.00000  76.9%   3.5  636s
  1291   429   90.00000   20    -  390.00000   90.00000  76.9%   3.5  641s

Cutting planes:
  User: 2
  MIR: 1
  Lazy constraints: 309

Explored 1412 nodes (5189 simplex iterations) in 680.91 seconds (2.94 work units)
Thread count was 4 (of 4 available processors)

Solution count 9: 390 394 402 ... 444

Time limit reached
Best objective 3.900000000000e+02, best bound 9.000000000000e+01, gap 76.9231%

User-callback calls 3842, time in user-callback 674.47 sec
